CMD:
./solvers/bin/cadical --plain --no-reduce -t 1600 ./data/cnfs//beemadd4b1/beemadd4b1.94.cnf

c --- [ banner ] -------------------------------------------------------------
c 
c CaDiCaL SAT Solver
c Copyright (c) 2016-2024
c A. Biere, M. Fleury, N. Froleyks, K. Fazekas, F. Pollitt, T. Faller
c JKU Linz, University of Freiburg, TU Wien
c 
c Version 2.1.3 5296d3d2a9bf48c154ab2acb5e44625776d821bf
c g++ (Gentoo 12.3.1_p20230526 p2) 12.3.1 20230526 -Wall -Wextra -O3 -DNDEBUG
c Sat Aug 9 07:26:21 PDT 2025 Linux cedar2.int.cedar.computecanada.ca 5.14.0-362.24.2.el9_3.x86_64 x86_64
c 
c --- [ limit ] --------------------------------------------------------------
c 
c setting time limit to 1600 seconds real time (due to '-t 1600')
c 
c --- [ parsing input ] ------------------------------------------------------
c 
c reading DIMACS file from './data/cnfs//beemadd4b1/beemadd4b1.94.cnf'
c opening file to read './data/cnfs//beemadd4b1/beemadd4b1.94.cnf'
c found 'p cnf 88786 248861' header
c parsed 248861 clauses in 0.05 seconds process time
c 
c --- [ options ] ------------------------------------------------------------
c 
c   --compact=false                (different from default 'true')
c   --decompose=false              (different from default 'true')
c   --deduplicate=false            (different from default 'true')
c   --elim=false                   (different from default 'true')
c   --probe=false                  (different from default 'true')
c   --reduce=false                 (different from default 'true')
c   --subsume=false                (different from default 'true')
c   --ternary=false                (different from default 'true')
c   --transred=false               (different from default 'true')
c   --vivify=false                 (different from default 'true')
c 
c --- [ solving ] ------------------------------------------------------------
c 
c time measured in process time since initialization
c 
c  seconds  reductions  redundant  irredundant
c         MB    restarts       trail       variables
c          level   conflicts       glue         remaining
c 
c *  0.05 43  0 0   0    0    0  0% 0 248009 61766 70%
c {  0.06 44  0 0   0    0    0  0% 0 248009 61766 70%
c i  0.06 44  1 0   0    1    0 32% 0 248009 61764 70%
c i  0.07 44 303 0   3   60   55 51% 7 248009 61753 70%
c }  0.11 44 192 0  37 1000  949 54% 4 248009 61747 70%
c [  0.11 44  0 0  37 1000  949  0% 0 248009 61747 70%
c O  0.12 44 45 0  37 1002  951 33% 7 248009 61747 70%
c i  0.12 44 62 0  37 1174 1102 39% 4 248009 61746 70%
c i  0.16 44 55 0  37 1840 1723 40% 5 248009 61745 70%
c i  0.16 44 56 0  37 1988 1860 40% 5 248009 61744 70%
c i  0.19 45 60 0  38 2695 2520 40% 6 248009 61743 70%
c ]  0.21 45 59 0  38 3001 2813 40% 6 248009 61743 70%
c {  0.21 45 192 0  38 3001 2813 54% 4 248009 61743 70%
c F  0.21 45 192 0  40 3005 2817 54% 4 248009 61743 70%
c i  0.28 45 158 0  80 3961 3715 52% 4 248009 61742 70%
c i  0.28 45 153 0  81 4041 3790 52% 4 248009 61741 70%
c i  0.29 45 147 0  86 4188 3922 51% 4 248009 61740 70%
c i  0.29 45 147 0  86 4190 3922 51% 4 248009 61739 70%
c i  0.29 45 143 0  94 4282 4010 50% 4 248009 61738 70%
c i  0.30 45 141 0  94 4362 4078 50% 4 248009 61737 70%
c 
c  seconds   reductions  redundant  irredundant
c         MB     restarts       trail       variables
c           level   conflicts       glue         remaining
c 
c i  0.35 45 111 0 174 5696 5330 47% 4 248009 61736 70%
c #  0.38 46 106 0 214 6006 5625 46% 4 248009 61736 70%
c i  0.39 46 102 0 225 6302 5902 46% 4 248009 61735 70%
c i  0.40 46 101 0 227 6455 6041 46% 4 248009 61733 70%
c i  0.40 46 101 0 227 6457 6041 46% 4 248009 61732 70%
c i  0.40 46 101 0 227 6463 6041 46% 4 248009 61729 70%
c i  0.40 46 101 0 227 6473 6050 46% 4 248009 61728 70%
c i  0.40 46 101 0 227 6490 6065 46% 4 248009 61727 70%
c i  0.40 46 100 0 227 6582 6151 46% 4 248009 61726 70%
c i  0.40 46 99 0 232 6746 6292 45% 4 248009 61725 70%
c }  0.41 46 96 0 245 7001 6520 45% 4 248009 61725 70%
c [  0.41 46 59 0 245 7001 6520 40% 6 248009 61725 70%
c i  0.45 46 61 0 246 7635 7117 42% 6 248009 61724 70%
c i  0.45 46 61 0 246 7655 7136 42% 6 248009 61723 70%
c i  0.51 46 99 0 246 8613 8025 49% 6 248009 61711 70%
c i  0.53 46 124 0 246 8983 8372 54% 6 248009 61648 69%
c I  0.58 47 135 0 247 10007 9344 54% 6 248009 61648 69%
c i  0.65 47 127 0 249 11497 10733 52% 7 248009 61647 69%
c i  0.65 47 126 0 249 11503 10738 52% 7 248009 61646 69%
c i  0.65 47 126 0 249 11512 10744 52% 7 248009 61644 69%
c 
c  seconds   reductions    redundant  irredundant
c         MB     restarts         trail       variables
c           level    conflicts        glue         remaining
c 
c i  0.76 47 116 0 249 12955 12074 51% 7 248009 61640 69%
c i  0.77 47 116 0 249 12972 12086 51% 7 248009 61639 69%
c i  0.82 48 112 0 250 13622 12641 51% 7 248009 61638 69%
c i  0.83 48 110 0 250 13789 12783 50% 7 248009 61637 69%
... skipped 960 lines ...
c i 1106.79 855 96 0 143874 2120905 2003212 54% 13 169073 58130 65%
c i 1108.44 857 99 0 143875 2124691 2006794 54% 14 169073 58129 65%
c i 1109.53 858 99 0 143877 2126426 2008467 54% 14 169073 58128 65%
c i 1116.73 865 99 0 143882 2141180 2022713 55% 14 169073 58127 65%
c i 1116.91 866 99 0 143882 2141815 2023304 55% 14 169073 58126 65%
c B 1118.18 867 100 0 143883 2145127 2026350 55% 14 169073 58126 65%
c 
c   seconds    reductions          redundant    irredundant
c            MB     restarts               trail        variables
c             level        conflicts           glue          remaining
c 
c i 1128.41 880 99 0 143897 2170844 2049744 54% 16 169073 58100 65%
c W 1145.04 987 121 0 143899 2211130 2087410 54% 19 168680 58072 65%
c i 1154.90 987 116 0 143900 2230157 2105536 53% 18 168680 58071 65%
c i 1155.10 987 118 0 143900 2230870 2106234 54% 18 168680 58070 65%
c i 1170.34 987 166 0 143900 2269596 2143608 61% 16 168680 58069 65%
c O 1174.95 987 173 0 143900 2278132 2151857 62% 15 168680 58069 65%
c i 1197.07 987 136 0 143901 2316445 2188730 59% 14 168680 58068 65%
c B 1213.20 987 122 0 143901 2346133 2217407 59% 13 168680 58068 65%
c i 1240.47 987 108 0 143901 2399725 2269131 57% 14 168680 58067 65%
c i 1241.46 988 108 0 143901 2401279 2270648 57% 14 168680 58066 65%
c W 1249.20 1072 107 0 143901 2415134 2283984 57% 15 168662 58066 65%
c I 1287.16 1072 100 0 143931 2485136 2351726 55% 14 168662 58066 65%
c i 1305.58 1072 100 0 143942 2523934 2389295 55% 14 168662 58065 65%
c i 1320.30 1072 102 0 143951 2546360 2411060 56% 14 168662 58064 65%
c B 1324.98 1072 100 0 143956 2556138 2420429 56% 13 168662 58064 65%
c i 1337.17 1072 97 0 143962 2574626 2438389 56% 13 168662 58063 65%
c i 1341.23 1072 96 0 143963 2579405 2443043 56% 13 168662 58062 65%
c i 1345.59 1072 94 0 143963 2584754 2448258 55% 13 168662 58057 65%
c i 1363.43 1073 98 0 143964 2612215 2474802 57% 13 168662 58056 65%
c W 1376.91 1159 93 0 143967 2628140 2490202 56% 14 168630 58056 65%
c 
c   seconds     reductions          redundant    irredundant
c            MB      restarts               trail        variables
c              level        conflicts           glue          remaining
c 
c i 1383.79 1159 93 0 143974 2640704 2502146 56% 15 168630 58051 65%
c i 1387.67 1159 93 0 143978 2647187 2508263 56% 16 168630 58050 65%
c i 1422.87 1159 105 0 143995 2695439 2554807 59% 17 168630 58049 65%
c O 1425.55 1159 106 0 143995 2701141 2560178 59% 17 168630 58049 65%
c i 1444.44 1159 103 0 144009 2729151 2587425 59% 16 168630 58048 65%
c B 1485.14 1159 96 0 144026 2775142 2632111 58% 15 168630 58048 65%
c W 1545.65 1251 91 0 144028 2850143 2702119 53% 23 168604 58048 65%
c i 1576.69 1251 88 0 144028 2885312 2729411 50% 32 168604 58047 65%
c ] 1590.73 1251 89 0 144041 2908371 2751554 52% 28 168604 58047 65%
c ? 1590.73 1251 89 0 144041 2908371 2751554 52% 28 168604 58047 65%
c 
c --- [ result ] -------------------------------------------------------------
c 
c UNKNOWN
c 
c --- [ run-time profiling ] -------------------------------------------------
c 
c process time taken by individual solving procedures
c (percentage relative to process time for solving)
c 
c      1590.68  100.00% search
c       932.12   58.60% unstable
c       650.44   40.89% stable
c         8.12    0.51% walk
c         0.05    0.00% parse
c         0.00    0.00% lucky
c         0.00    0.00% simplify
c   =================================
c      1590.68  100.00% solve
c 
c last line shows process time for solving
c (percentage relative to total process time)
c 
c --- [ statistics ] ---------------------------------------------------------
c 
c chronological:            489259        16.82 %  of conflicts
c conflicts:               2908371      1828.38    per second
c decisions:               9182477      5772.67    per second
c fixed:                     30739        34.62 %  of all variables
c learned:                 2851824        98.06 %  per conflict
c learned_lits:          356001601       100.00 %  learned literals
c minimized:                     0         0.00 %  learned literals
c shrunken:               27187830         7.64 %  learned literals
c minishrunken:          128996110        36.23 %  learned literals
c otfs:                       7406         0.25 %  of conflict
c propagations:         3456907070         2.17 M  per second
c rephased:                     75     38778.28    interval
c restarts:                 144041        20.19    interval
c stabilizing:                   6        53.06 %  of conflicts
c subsumed:                  90685         2.93 %  of all clauses
c strengthened:               7322         0.24 %  of all clauses
c walked:                       24    121182.12    interval
c 
c seconds are measured in process time for solving
c 
c --- [ resources ] ----------------------------------------------------------
c 
c total process time since initialization:      1590.73    seconds
c total real time since initialization:         1600.01    seconds
c maximum resident set size of process:         1938.95    MB
c 
c --- [ shutting down ] ------------------------------------------------------
c 
c exit 0
